c ren 1 -> 1
c ren 2 -> 2
c ren 3 -> 3
c ren 6 -> 4
c ren 11 -> 5
c ren 12 -> 6
c ren 14 -> 7
c ren 17 -> 8
c ren 20 -> 9
c ren 26 -> 10
c ren 31 -> 11
c ren 33 -> 12
c ren 37 -> 13
c ren 38 -> 14
c ren 41 -> 15
c ren 44 -> 16
c ren 45 -> 17
c ren 47 -> 18
c ren 50 -> 19
c ren 53 -> 20
c ren 54 -> 21
c ren 56 -> 22
c ren 59 -> 23
c ren 62 -> 24
c ren 63 -> 25
c ren 65 -> 26
c ren 67 -> 27
c ren 93 -> 28
c ren 97 -> 29
c ren 116 -> 30
c ren 117 -> 31
c ren 129 -> 32
c ren 135 -> 33
p cnf 33 78
a 1 2 3 4 5 6 7 8 9 10 11 12 14 16 17 18 20 21 22 24 25 26 31 32 0
d 28 1 5 0
d 29 10 11 0
d 30 14 16 0
e 13 15 19 23 27 33 0
-2 3 4 6 7 8 9 13 -15 -19 -23 -27 28 0
1 -3 -5 6 7 8 9 -10 11 12 -13 0
-1 -2 3 4 5 -9 10 11 -13 0
1 2 -5 6 7 8 9 -10 11 12 -13 0
-1 -2 3 4 5 -7 8 9 -10 11 -13 0
-1 -2 3 4 -5 6 7 8 9 -10 11 -13 0
-7 13 -15 -19 -23 -27 -28 0
1 -3 5 -8 10 11 12 -13 0
3 4 6 7 8 9 13 -15 -19 -21 -23 -27 -30 -33 0
1 2 -5 6 7 8 9 -10 -11 -12 -13 0
1 2 5 -7 8 9 -10 -11 -12 -13 0
2 13 -15 -19 -23 -27 -28 0
1 -2 -3 5 -8 10 11 -13 0
1 2 5 -9 10 -11 -12 -13 0
1 -3 5 -6 8 9 -10 11 12 -13 0
3 4 6 7 -8 13 -15 -19 -23 -27 -29 0
-8 13 -15 -19 -23 -27 -28 0
-9 13 -15 -19 -23 -27 -28 0
-1 -2 3 4 5 -6 8 9 -10 11 -13 0
1 2 5 -6 8 9 -10 -11 -12 -13 0
3 4 6 7 -9 13 -15 -19 -23 -27 -29 0
1 2 5 -8 10 -11 -12 -13 0
2 12 -14 15 0
2 3 4 6 7 8 9 12 13 -15 17 18 -19 -23 -25 -27 32 33 0
-16 17 18 19 0
16 -18 19 0
3 4 6 7 8 9 13 -15 -19 22 -23 -25 -27 -30 -33 0
-20 21 22 23 0
16 -17 19 0
20 -22 23 0
-24 25 -26 27 0
24 26 27 0
24 -25 27 0
-4 13 -15 -19 -23 -27 -28 0
1 -4 5 -9 10 11 12 -13 0
1 -2 -4 5 -9 10 11 -13 0
1 2 5 -9 10 11 12 -13 0
1 2 5 -8 10 11 12 -13 0
2 3 4 6 7 8 9 12 13 -15 17 18 -19 21 -22 -23 -27 -31 -33 0
1 -4 -5 6 7 8 9 -10 11 12 -13 0
-6 13 -15 -19 -23 -27 -28 0
3 4 6 7 8 9 -12 13 -15 -19 -23 -27 -30 -31 0
1 -4 5 -8 10 11 12 -13 0
1 -2 -4 5 -8 10 11 -13 0
1 -2 -4 -5 6 7 8 9 -10 11 -13 0
1 -2 -3 -5 6 7 8 9 -10 11 -13 0
1 2 5 -6 8 9 -10 11 12 -13 0
1 2 5 -7 8 9 -10 11 12 -13 0
1 -2 -4 5 -6 8 9 -10 11 -13 0
-2 3 4 6 7 13 -15 -19 -23 -27 -29 0
1 -4 5 -6 8 9 -10 11 12 -13 0
1 -2 -4 5 -7 8 9 -10 11 -13 0
1 -2 -3 5 -6 8 9 -10 11 -13 0
1 -2 -3 5 -7 8 9 -10 11 -13 0
2 3 4 6 7 8 9 12 13 -15 17 18 -19 -22 -23 -27 32 33 0
2 3 4 6 7 8 9 12 13 -15 17 18 -19 22 -23 -25 -27 30 32 0
1 -4 5 -7 8 9 -10 11 12 -13 0
-3 13 -15 -19 -23 -27 -28 0
2 3 4 6 7 8 9 12 13 -15 17 18 -19 -23 -27 30 -31 0
2 3 4 6 7 8 9 12 13 -15 17 18 -19 -21 -23 -27 30 32 0
2 3 4 6 7 8 9 12 13 -15 17 18 -19 -21 -23 -27 32 33 0
-1 -2 3 4 5 -8 10 11 -13 0
-2 14 15 0
1 -3 5 -7 8 9 -10 11 12 -13 0
-2 3 4 6 7 8 9 13 -15 -19 -23 -27 -30 -31 0
2 3 4 6 7 8 9 -12 13 -15 -19 -23 -27 29 0
3 4 6 7 8 9 13 -15 -18 -19 -23 -27 -30 -31 0
-31 32 33 0
31 -32 33 0
31 32 -33 0
3 4 6 7 12 13 -15 -19 -23 -27 -29 0
3 4 6 7 8 9 13 -15 -17 -19 -23 -27 -30 -31 0
1 -2 -3 5 -9 10 11 -13 0
20 -21 23 0
1 -3 5 -9 10 11 12 -13 0
-12 14 15 0
2 3 4 6 7 8 9 12 13 -15 17 18 -19 21 -22 -23 -27 -32 -33 0
2 3 4 6 7 8 9 12 13 -15 17 18 -19 -23 -26 -27 31 32 0
